\ENCODING=ISO-8859-1
\Problem name: ilog.cplex

Minimize
 obj1: 101827 x1 + 107470 x2 + 96381 x3 + 98732 x4 + 90124 x5 + 106601 x6
       + 97462 x7 + 100387 x8 + 108934 x9 + 90689 x10 + 90423 x11 + 90861 x12
       + 94434 x13 + 96181 x14 + 102076 x15 + 93418 x16 + 108142 x17
       + 98790 x18 + 99995 x19 + 106631 x20 + 106041 x21 + 96138 x22
       + 93851 x23 + 94039 x24 + 109424 x25 + 99058 x26 + 95702 x27
       + 105078 x28 + 103798 x29 + 96666 x30 + 98164 x31 + 99122 x32
       + 96289 x33 + 98932 x34 + 93792 x35 + 95913 x36 + 91659 x37 + 109725 x38
       + 99025 x39 + 107698 x40 + 102419 x41 + 103158 x42 + 101666 x43
       + 101072 x44 + 109444 x45 + 106561 x46 + 102176 x47 + 109835 x48
       + 96112 x49 + 94509 x50 + 90079 x51 + 106054 x52 + 95238 x53 + 93260 x54
       + 91887 x55 + 94854 x56 + 92234 x57 + 94002 x58 + 98394 x59 + 95088 x60
       + 99143 x61 + 104529 x62 + 104661 x63 + 92409 x64 + 101905 x65
       + 106452 x66 + 100896 x67 + 94767 x68 + 108084 x69 + 107471 x70
       + 107047 x71 + 105488 x72 + 101670 x73 + 108328 x74 + 93162 x75
       + 92945 x76 + 93113 x77 + 99263 x78 + 101366 x79 + 91607 x80 + 93711 x81
       + 101330 x82 + 102020 x83 + 96830 x84 + 103052 x85 + 90770 x86
       + 104013 x87 + 98830 x88 + 98352 x89 + 93097 x90 + 97120 x91
       + 100109 x92 + 95354 x93 + 107646 x94 + 92955 x95 + 94951 x96
       + 91878 x97 + 103011 x98 + 90324 x99 + 99665 x100 + 107860 x101
       + 92704 x102 + 102985 x103 + 109252 x104 + 106338 x105 + 94045 x106
       + 100500 x107 + 100833 x108 + 104062 x109 + 105974 x110 + 91398 x111
       + 96298 x112 + 99185 x113 + 109307 x114 + 99128 x115 + 104120 x116
       + 97287 x117 + 101661 x118 + 103416 x119 + 109464 x120 + 97687 x121
       + 100907 x122 + 101099 x123 + 99398 x124 + 104163 x125 + 106267 x126
       + 105865 x127 + 106326 x128 + 91364 x129 + 109112 x130 + 97838 x131
       + 106685 x132 + 108885 x133 + 93166 x134 + 109898 x135 + 97464 x136
       + 91240 x137 + 92134 x138 + 99207 x139 + 109173 x140 + 103841 x141
       + 101707 x142 + 99625 x143 + 100683 x144 + 92630 x145 + 92435 x146
       + 103516 x147 + 98659 x148 + 98160 x149 + 100126 x150 + 101271 x151
       + 100196 x152 + 93130 x153 + 91115 x154 + 92358 x155 + 91679 x156
       + 97223 x157 + 99094 x158 + 104047 x159 + 95826 x160 + 90345 x161
       + 92345 x162 + 93824 x163 + 107495 x164 + 102940 x165 + 103635 x166
       + 94053 x167 + 99237 x168 + 106221 x169 + 95852 x170 + 106278 x171
       + 106347 x172 + 90773 x173 + 94599 x174 + 107183 x175 + 106362 x176
       + 91873 x177 + 99719 x178 + 106777 x179 + 90116 x180 + 98691 x181
       + 97977 x182 + 95187 x183 + 90578 x184 + 108117 x185 + 108501 x186
       + 90866 x187 + 90366 x188 + 98235 x189 + 97603 x190 + 100055 x191
       + 109206 x192 + 101283 x193 + 100258 x194 + 95053 x195 + 98511 x196
       + 91476 x197 + 101786 x198 + 97100 x199 + 101893 x200 + 97582 x201
       + 99385 x202 + 96883 x203 + 99320 x204 + 101574 x205 + 90814 x206
       + 107614 x207 + 90041 x208 + 98808 x209 + 97952 x210 + 102259 x211
       + 100625 x212 + 103712 x213 + 99422 x214 + 108945 x215 + 107521 x216
       + 91201 x217 + 103377 x218 + 106079 x219 + 100495 x220 + 104530 x221
       + 101401 x222 + 92423 x223 + 109669 x224 + 97351 x225 + 92667 x226
       + 106408 x227 + 97655 x228 + 103927 x229 + 91215 x230 + 97760 x231
       + 95456 x232 + 93640 x233 + 90953 x234 + 107050 x235 + 105341 x236
       + 93785 x237 + 95364 x238 + 96933 x239 + 99080 x240 + 98073 x241
       + 101876 x242 + 102588 x243 + 105740 x244 + 97377 x245 + 104472 x246
       + 108297 x247 + 109646 x248 + 93934 x249 + 205010 x250 + 18622 x251
       + 19166 x252 + 19338 x253 + 20885 x254 + 20557 x255 + 21135 x256
       + 20383 x257 + 18996 x258 + 18094 x259 + 21360 x260 + 18265 x261
       + 20621 x262 + 18367 x263 + 20633 x264 + 21526 x265 + 18039 x266
       + 18723 x267 + 18202 x268 + 18674 x269 + 20387 x270 + 21799 x271
       + 20771 x272 + 18823 x273 + 21134 x274 + 20826 x275 + 19236 x276
       + 19137 x277 + 19127 x278 + 21858 x279 + 19923 x280 + 19570 x281
       + 19452 x282 + 18826 x283 + 20927 x284 + 18253 x285 + 18471 x286
       + 18795 x287 + 21471 x288 + 20083 x289 + 18783 x290 + 20775 x291
       + 18767 x292 + 20703 x293 + 20723 x294 + 21665 x295 + 18914 x296
       + 19979 x297 + 21171 x298 + 21612 x299 + 26453 x300
Subject To
 c1:   x3 + x19 - x25 + x31 + x33 - x38 - x45  = 0
 c2:   x53 + x69 - x75 + x81 + x83 - x88 - x95  = -1
 c3:   x103 + x119 - x125 + x131 + x133 - x138 - x145  = 0
 c4:   x153 + x169 - x175 + x181 + x183 - x188 - x195  = 0
 c5:   x203 + x219 - x225 + x231 + x233 - x238 - x245  = 0
 c6:   x2 + x6 + x13 - x17 - x24 - x34 + x37  = 0
 c7:   x52 + x56 + x63 - x67 - x74 - x84 + x87  = 0
 c8:   x102 + x106 + x113 - x117 - x124 - x134 + x137  = 0
 c9:   x152 + x156 + x163 - x167 - x174 - x184 + x187  = 1
 c10:  x202 + x206 + x213 - x217 - x224 - x234 + x237  = 0
 c11:  x8 - x21 - x26 - x32 - x33 + x45  = 0
 c12:  x58 - x71 - x76 - x82 - x83 + x95  = 0
 c13:  x108 - x121 - x126 - x132 - x133 + x145  = 0
 c14:  x158 - x171 - x176 - x182 - x183 + x195  = 0
 c15:  x208 - x221 - x226 - x232 - x233 + x245  = 0
 c16:  - x10 - x14 - x19 + x20 + x27 + x34 + x41  = 0
 c17:  - x60 - x64 - x69 + x70 + x77 + x84 + x91  = 1
 c18:  - x110 - x114 - x119 + x120 + x127 + x134 + x141  = 0
 c19:  - x160 - x164 - x169 + x170 + x177 + x184 + x191  = 0
 c20:  - x210 - x214 - x219 + x220 + x227 + x234 + x241  = 0
 c21:  x7 + x11 - x18 - x20 + x29 + x35  = 0
 c22:  x57 + x61 - x68 - x70 + x79 + x85  = 0
 c23:  x107 + x111 - x118 - x120 + x129 + x135  = 0
 c24:  x157 + x161 - x168 - x170 + x179 + x185  = 0
 c25:  x207 + x211 - x218 - x220 + x229 + x235  = 0
 c26:  - x4 + x12 - x13 + x23 - x27 - x28 - x35 - x50  = 0
 c27:  - x54 + x62 - x63 + x73 - x77 - x78 - x85 - x100  = 0
 c28:  - x104 + x112 - x113 + x123 - x127 - x128 - x135 - x150  = 0
 c29:  - x154 + x162 - x163 + x173 - x177 - x178 - x185 - x200  = 0
 c30:  - x204 + x212 - x213 + x223 - x227 - x228 - x235 - x250  = 0
 c31:  - x8 + x10 + x15 - x22 + x26 - x41 - x44  = -1
 c32:  - x58 + x60 + x65 - x72 + x76 - x91 - x94  = 0
 c33:  - x108 + x110 + x115 - x122 + x126 - x141 - x144  = 0
 c34:  - x158 + x160 + x165 - x172 + x176 - x191 - x194  = 0
 c35:  - x208 + x210 + x215 - x222 + x226 - x241 - x244  = 0
 c36:  x9 - x16 + x17 - x29 - x30 - x36 + x39  = 0
 c37:  x59 - x66 + x67 - x79 - x80 - x86 + x89  = 0
 c38:  x109 - x116 + x117 - x129 - x130 - x136 + x139  = -1
 c39:  x159 - x166 + x167 - x179 - x180 - x186 + x189  = 0
 c40:  x209 - x216 + x217 - x229 - x230 - x236 + x239  = 0
 c41:  x5 - x6 + x21 + x22 + x24 + x38 - x39 - x46 + x47  = 0
 c42:  x55 - x56 + x71 + x72 + x74 + x88 - x89 - x96 + x97  = 0
 c43:  x105 - x106 + x121 + x122 + x124 + x138 - x139 - x146 + x147  = 0
 c44:  x155 - x156 + x171 + x172 + x174 + x188 - x189 - x196 + x197  = 0
 c45:  x205 - x206 + x221 + x222 + x224 + x238 - x239 - x246 + x247  = 0
 c46:  - x11 - x15 + x18 + x42 - x43 + x44 - x47 - x48 + x49  = 0
 c47:  - x61 - x65 + x68 + x92 - x93 + x94 - x97 - x98 + x99  = 0
 c48:  - x111 - x115 + x118 + x142 - x143 + x144 - x147 - x148 + x149  = 0
 c49:  - x161 - x165 + x168 + x192 - x193 + x194 - x197 - x198 + x199  = 0
 c50:  - x211 - x215 + x218 + x242 - x243 + x244 - x247 - x248 + x249  = 0
 c51:  - x1 + x4 - x5 - x12 + x46  = 0
 c52:  - x51 + x54 - x55 - x62 + x96  = 0
 c53:  - x101 + x104 - x105 - x112 + x146  = 0
 c54:  - x151 + x154 - x155 - x162 + x196  = -1
 c55:  - x201 + x204 - x205 - x212 + x246  = 0
 c56:  x14 - x37 + x40 - x42 + x43 + x50  = 0
 c57:  x64 - x87 + x90 - x92 + x93 + x100  = 0
 c58:  x114 - x137 + x140 - x142 + x143 + x150  = 0
 c59:  x164 - x187 + x190 - x192 + x193 + x200  = 0
 c60:  x214 - x237 + x240 - x242 + x243 + x250  = 1
 c61:  - x7 + x16  = 0
 c62:  - x57 + x66  = 0
 c63:  - x107 + x116  = 0
 c64:  - x157 + x166  = 0
 c65:  - x207 + x216  = 0
 c66:  - x2 - x3 - x9 - x23 + x25 + x30 + x32  = 1
 c67:  - x52 - x53 - x59 - x73 + x75 + x80 + x82  = 0
 c68:  - x102 - x103 - x109 - x123 + x125 + x130 + x132  = 0
 c69:  - x152 - x153 - x159 - x173 + x175 + x180 + x182  = 0
 c70:  - x202 - x203 - x209 - x223 + x225 + x230 + x232  = -1
 c71:  x1 + x28 - x31 + x36 - x40 + x48 - x49  = 0
 c72:  x51 + x78 - x81 + x86 - x90 + x98 - x99  = 0
 c73:  x101 + x128 - x131 + x136 - x140 + x148 - x149  = 1
 c74:  x151 + x178 - x181 + x186 - x190 + x198 - x199  = 0
 c75:  x201 + x228 - x231 + x236 - x240 + x248 - x249  = 0
 c76:  4 x1 + 4 x51 + 4 x101 + 4 x151 + 4 x201 - 2 x251 <= 0
 c77:  4 x2 + 4 x52 + 4 x102 + 4 x152 + 4 x202 - 2 x252 <= 0
 c78:  4 x3 + 4 x53 + 4 x103 + 4 x153 + 4 x203 - 2 x253 <= 0
 c79:  4 x4 + 4 x54 + 4 x104 + 4 x154 + 4 x204 - 2 x254 <= 0
 c80:  4 x5 + 4 x55 + 4 x105 + 4 x155 + 4 x205 - 2 x255 <= 0
 c81:  4 x6 + 4 x56 + 4 x106 + 4 x156 + 4 x206 - 2 x256 <= 0
 c82:  4 x7 + 4 x57 + 4 x107 + 4 x157 + 4 x207 - 2 x257 <= 0
 c83:  4 x8 + 4 x58 + 4 x108 + 4 x158 + 4 x208 - 2 x258 <= 0
 c84:  4 x9 + 4 x59 + 4 x109 + 4 x159 + 4 x209 - 2 x259 <= 0
 c85:  4 x10 + 4 x60 + 4 x110 + 4 x160 + 4 x210 - 2 x260 <= 0
 c86:  4 x11 + 4 x61 + 4 x111 + 4 x161 + 4 x211 - 2 x261 <= 0
 c87:  4 x12 + 4 x62 + 4 x112 + 4 x162 + 4 x212 - 2 x262 <= 0
 c88:  4 x13 + 4 x63 + 4 x113 + 4 x163 + 4 x213 - 2 x263 <= 0
 c89:  4 x14 + 4 x64 + 4 x114 + 4 x164 + 4 x214 - 2 x264 <= 0
 c90:  4 x15 + 4 x65 + 4 x115 + 4 x165 + 4 x215 - 2 x265 <= 0
 c91:  4 x16 + 4 x66 + 4 x116 + 4 x166 + 4 x216 - 2 x266 <= 0
 c92:  4 x17 + 4 x67 + 4 x117 + 4 x167 + 4 x217 - 2 x267 <= 0
 c93:  4 x18 + 4 x68 + 4 x118 + 4 x168 + 4 x218 - 2 x268 <= 0
 c94:  4 x19 + 4 x69 + 4 x119 + 4 x169 + 4 x219 - 2 x269 <= 0
 c95:  4 x20 + 4 x70 + 4 x120 + 4 x170 + 4 x220 - 2 x270 <= 0
 c96:  4 x21 + 4 x71 + 4 x121 + 4 x171 + 4 x221 - 2 x271 <= 0
 c97:  4 x22 + 4 x72 + 4 x122 + 4 x172 + 4 x222 - 2 x272 <= 0
 c98:  4 x23 + 4 x73 + 4 x123 + 4 x173 + 4 x223 - 2 x273 <= 0
 c99:  4 x24 + 4 x74 + 4 x124 + 4 x174 + 4 x224 - 2 x274 <= 0
 c100: 4 x25 + 4 x75 + 4 x125 + 4 x175 + 4 x225 - 2 x275 <= 0
 c101: 4 x26 + 4 x76 + 4 x126 + 4 x176 + 4 x226 - 2 x276 <= 0
 c102: 4 x27 + 4 x77 + 4 x127 + 4 x177 + 4 x227 - 2 x277 <= 0
 c103: 4 x28 + 4 x78 + 4 x128 + 4 x178 + 4 x228 - 2 x278 <= 0
 c104: 4 x29 + 4 x79 + 4 x129 + 4 x179 + 4 x229 - 2 x279 <= 0
 c105: 4 x30 + 4 x80 + 4 x130 + 4 x180 + 4 x230 - 2 x280 <= 0
 c106: 4 x31 + 4 x81 + 4 x131 + 4 x181 + 4 x231 - 2 x281 <= 0
 c107: 4 x32 + 4 x82 + 4 x132 + 4 x182 + 4 x232 - 2 x282 <= 0
 c108: 4 x33 + 4 x83 + 4 x133 + 4 x183 + 4 x233 - 2 x283 <= 0
 c109: 4 x34 + 4 x84 + 4 x134 + 4 x184 + 4 x234 - 2 x284 <= 0
 c110: 4 x35 + 4 x85 + 4 x135 + 4 x185 + 4 x235 - 2 x285 <= 0
 c111: 4 x36 + 4 x86 + 4 x136 + 4 x186 + 4 x236 - 2 x286 <= 0
 c112: 4 x37 + 4 x87 + 4 x137 + 4 x187 + 4 x237 - 2 x287 <= 0
 c113: 4 x38 + 4 x88 + 4 x138 + 4 x188 + 4 x238 - 2 x288 <= 0
 c114: 4 x39 + 4 x89 + 4 x139 + 4 x189 + 4 x239 - 2 x289 <= 0
 c115: 4 x40 + 4 x90 + 4 x140 + 4 x190 + 4 x240 - 2 x290 <= 0
 c116: 4 x41 + 4 x91 + 4 x141 + 4 x191 + 4 x241 - 2 x291 <= 0
 c117: 4 x42 + 4 x92 + 4 x142 + 4 x192 + 4 x242 - 2 x292 <= 0
 c118: 4 x43 + 4 x93 + 4 x143 + 4 x193 + 4 x243 - 2 x293 <= 0
 c119: 4 x44 + 4 x94 + 4 x144 + 4 x194 + 4 x244 - 2 x294 <= 0
 c120: 4 x45 + 4 x95 + 4 x145 + 4 x195 + 4 x245 - 2 x295 <= 0
 c121: 4 x46 + 4 x96 + 4 x146 + 4 x196 + 4 x246 - 2 x296 <= 0
 c122: 4 x47 + 4 x97 + 4 x147 + 4 x197 + 4 x247 - 2 x297 <= 0
 c123: 4 x48 + 4 x98 + 4 x148 + 4 x198 + 4 x248 - 2 x298 <= 0
 c124: 4 x49 + 4 x99 + 4 x149 + 4 x199 + 4 x249 - 2 x299 <= 0
 c125: 4 x50 + 4 x100 + 4 x150 + 4 x200 + 4 x250 - 2 x300 <= 0
Bounds
 0 <= x1 <= 1
 0 <= x2 <= 1
 0 <= x3 <= 1
 0 <= x4 <= 1
 0 <= x5 <= 1
 0 <= x6 <= 1
 0 <= x7 <= 1
 0 <= x8 <= 1
 0 <= x9 <= 1
 0 <= x10 <= 1
 0 <= x11 <= 1
 0 <= x12 <= 1
 0 <= x13 <= 1
 0 <= x14 <= 1
 0 <= x15 <= 1
 0 <= x16 <= 1
 0 <= x17 <= 1
 0 <= x18 <= 1
 0 <= x19 <= 1
 0 <= x20 <= 1
 0 <= x21 <= 1
 0 <= x22 <= 1
 0 <= x23 <= 1
 0 <= x24 <= 1
 0 <= x25 <= 1
 0 <= x26 <= 1
 0 <= x27 <= 1
 0 <= x28 <= 1
 0 <= x29 <= 1
 0 <= x30 <= 1
 0 <= x31 <= 1
 0 <= x32 <= 1
 0 <= x33 <= 1
 0 <= x34 <= 1
 0 <= x35 <= 1
 0 <= x36 <= 1
 0 <= x37 <= 1
 0 <= x38 <= 1
 0 <= x39 <= 1
 0 <= x40 <= 1
 0 <= x41 <= 1
 0 <= x42 <= 1
 0 <= x43 <= 1
 0 <= x44 <= 1
 0 <= x45 <= 1
 0 <= x46 <= 1
 0 <= x47 <= 1
 0 <= x48 <= 1
 0 <= x49 <= 1
 0 <= x50 <= 1
 0 <= x51 <= 1
 0 <= x52 <= 1
 0 <= x53 <= 1
 0 <= x54 <= 1
 0 <= x55 <= 1
 0 <= x56 <= 1
 0 <= x57 <= 1
 0 <= x58 <= 1
 0 <= x59 <= 1
 0 <= x60 <= 1
 0 <= x61 <= 1
 0 <= x62 <= 1
 0 <= x63 <= 1
 0 <= x64 <= 1
 0 <= x65 <= 1
 0 <= x66 <= 1
 0 <= x67 <= 1
 0 <= x68 <= 1
 0 <= x69 <= 1
 0 <= x70 <= 1
 0 <= x71 <= 1
 0 <= x72 <= 1
 0 <= x73 <= 1
 0 <= x74 <= 1
 0 <= x75 <= 1
 0 <= x76 <= 1
 0 <= x77 <= 1
 0 <= x78 <= 1
 0 <= x79 <= 1
 0 <= x80 <= 1
 0 <= x81 <= 1
 0 <= x82 <= 1
 0 <= x83 <= 1
 0 <= x84 <= 1
 0 <= x85 <= 1
 0 <= x86 <= 1
 0 <= x87 <= 1
 0 <= x88 <= 1
 0 <= x89 <= 1
 0 <= x90 <= 1
 0 <= x91 <= 1
 0 <= x92 <= 1
 0 <= x93 <= 1
 0 <= x94 <= 1
 0 <= x95 <= 1
 0 <= x96 <= 1
 0 <= x97 <= 1
 0 <= x98 <= 1
 0 <= x99 <= 1
 0 <= x100 <= 1
 0 <= x101 <= 1
 0 <= x102 <= 1
 0 <= x103 <= 1
 0 <= x104 <= 1
 0 <= x105 <= 1
 0 <= x106 <= 1
 0 <= x107 <= 1
 0 <= x108 <= 1
 0 <= x109 <= 1
 0 <= x110 <= 1
 0 <= x111 <= 1
 0 <= x112 <= 1
 0 <= x113 <= 1
 0 <= x114 <= 1
 0 <= x115 <= 1
 0 <= x116 <= 1
 0 <= x117 <= 1
 0 <= x118 <= 1
 0 <= x119 <= 1
 0 <= x120 <= 1
 0 <= x121 <= 1
 0 <= x122 <= 1
 0 <= x123 <= 1
 0 <= x124 <= 1
 0 <= x125 <= 1
 0 <= x126 <= 1
 0 <= x127 <= 1
 0 <= x128 <= 1
 0 <= x129 <= 1
 0 <= x130 <= 1
 0 <= x131 <= 1
 0 <= x132 <= 1
 0 <= x133 <= 1
 0 <= x134 <= 1
 0 <= x135 <= 1
 0 <= x136 <= 1
 0 <= x137 <= 1
 0 <= x138 <= 1
 0 <= x139 <= 1
 0 <= x140 <= 1
 0 <= x141 <= 1
 0 <= x142 <= 1
 0 <= x143 <= 1
 0 <= x144 <= 1
 0 <= x145 <= 1
 0 <= x146 <= 1
 0 <= x147 <= 1
 0 <= x148 <= 1
 0 <= x149 <= 1
 0 <= x150 <= 1
 0 <= x151 <= 1
 0 <= x152 <= 1
 0 <= x153 <= 1
 0 <= x154 <= 1
 0 <= x155 <= 1
 0 <= x156 <= 1
 0 <= x157 <= 1
 0 <= x158 <= 1
 0 <= x159 <= 1
 0 <= x160 <= 1
 0 <= x161 <= 1
 0 <= x162 <= 1
 0 <= x163 <= 1
 0 <= x164 <= 1
 0 <= x165 <= 1
 0 <= x166 <= 1
 0 <= x167 <= 1
 0 <= x168 <= 1
 0 <= x169 <= 1
 0 <= x170 <= 1
 0 <= x171 <= 1
 0 <= x172 <= 1
 0 <= x173 <= 1
 0 <= x174 <= 1
 0 <= x175 <= 1
 0 <= x176 <= 1
 0 <= x177 <= 1
 0 <= x178 <= 1
 0 <= x179 <= 1
 0 <= x180 <= 1
 0 <= x181 <= 1
 0 <= x182 <= 1
 0 <= x183 <= 1
 0 <= x184 <= 1
 0 <= x185 <= 1
 0 <= x186 <= 1
 0 <= x187 <= 1
 0 <= x188 <= 1
 0 <= x189 <= 1
 0 <= x190 <= 1
 0 <= x191 <= 1
 0 <= x192 <= 1
 0 <= x193 <= 1
 0 <= x194 <= 1
 0 <= x195 <= 1
 0 <= x196 <= 1
 0 <= x197 <= 1
 0 <= x198 <= 1
 0 <= x199 <= 1
 0 <= x200 <= 1
 0 <= x201 <= 1
 0 <= x202 <= 1
 0 <= x203 <= 1
 0 <= x204 <= 1
 0 <= x205 <= 1
 0 <= x206 <= 1
 0 <= x207 <= 1
 0 <= x208 <= 1
 0 <= x209 <= 1
 0 <= x210 <= 1
 0 <= x211 <= 1
 0 <= x212 <= 1
 0 <= x213 <= 1
 0 <= x214 <= 1
 0 <= x215 <= 1
 0 <= x216 <= 1
 0 <= x217 <= 1
 0 <= x218 <= 1
 0 <= x219 <= 1
 0 <= x220 <= 1
 0 <= x221 <= 1
 0 <= x222 <= 1
 0 <= x223 <= 1
 0 <= x224 <= 1
 0 <= x225 <= 1
 0 <= x226 <= 1
 0 <= x227 <= 1
 0 <= x228 <= 1
 0 <= x229 <= 1
 0 <= x230 <= 1
 0 <= x231 <= 1
 0 <= x232 <= 1
 0 <= x233 <= 1
 0 <= x234 <= 1
 0 <= x235 <= 1
 0 <= x236 <= 1
 0 <= x237 <= 1
 0 <= x238 <= 1
 0 <= x239 <= 1
 0 <= x240 <= 1
 0 <= x241 <= 1
 0 <= x242 <= 1
 0 <= x243 <= 1
 0 <= x244 <= 1
 0 <= x245 <= 1
 0 <= x246 <= 1
 0 <= x247 <= 1
 0 <= x248 <= 1
 0 <= x249 <= 1
 0 <= x250 <= 1
 0 <= x251 <= 1
 0 <= x252 <= 1
 0 <= x253 <= 1
 0 <= x254 <= 1
 0 <= x255 <= 1
 0 <= x256 <= 1
 0 <= x257 <= 1
 0 <= x258 <= 1
 0 <= x259 <= 1
 0 <= x260 <= 1
 0 <= x261 <= 1
 0 <= x262 <= 1
 0 <= x263 <= 1
 0 <= x264 <= 1
 0 <= x265 <= 1
 0 <= x266 <= 1
 0 <= x267 <= 1
 0 <= x268 <= 1
 0 <= x269 <= 1
 0 <= x270 <= 1
 0 <= x271 <= 1
 0 <= x272 <= 1
 0 <= x273 <= 1
 0 <= x274 <= 1
 0 <= x275 <= 1
 0 <= x276 <= 1
 0 <= x277 <= 1
 0 <= x278 <= 1
 0 <= x279 <= 1
 0 <= x280 <= 1
 0 <= x281 <= 1
 0 <= x282 <= 1
 0 <= x283 <= 1
 0 <= x284 <= 1
 0 <= x285 <= 1
 0 <= x286 <= 1
 0 <= x287 <= 1
 0 <= x288 <= 1
 0 <= x289 <= 1
 0 <= x290 <= 1
 0 <= x291 <= 1
 0 <= x292 <= 1
 0 <= x293 <= 1
 0 <= x294 <= 1
 0 <= x295 <= 1
 0 <= x296 <= 1
 0 <= x297 <= 1
 0 <= x298 <= 1
 0 <= x299 <= 1
 0 <= x300 <= 1
Binaries
 x251  x252  x253  x254  x255  x256  x257  x258  x259  x260  x261  x262  x263 
 x264  x265  x266  x267  x268  x269  x270  x271  x272  x273  x274  x275  x276 
 x277  x278  x279  x280  x281  x282  x283  x284  x285  x286  x287  x288  x289 
 x290  x291  x292  x293  x294  x295  x296  x297  x298  x299  x300 
End
